66
1 0 18
2 0 26
2 1 11
3 0 10
3 1 24
3 2 4
4 0 22
4 1 16
4 2 22
4 3 18
5 0 8
5 1 14
5 2 9
5 3 15
5 4 13
6 0 11
6 1 3
6 2 6
6 3 23
6 4 15
6 5 21
7 0 21
7 1 12
7 2 24
7 3 26
7 4 19
7 5 9
7 6 3
8 0 21
8 1 6
8 2 11
8 3 13
8 4 10
8 5 4
8 6 13
8 7 5
9 0 22
9 1 10
9 2 23
9 3 14
9 4 22
9 5 7
9 6 2
9 7 14
9 8 21
10 0 24
10 1 5
10 2 26
10 3 8
10 4 21
10 5 4
10 6 6
10 7 3
10 8 16
10 9 22
11 0 3
11 1 13
11 2 20
11 3 18
11 4 17
11 5 18
11 6 12
11 7 16
11 8 22
11 9 25
11 10 20
12 0 23
12 1 1
12 2 1
12 3 14
12 4 15
12 5 5
12 6 22
12 7 2
12 8 1
12 9 26
12 10 25
12 11 25
13 0 18
13 1 19
13 2 9
13 3 9
13 4 14
13 5 15
13 6 15
13 7 22
13 8 21
13 9 22
13 10 17
13 11 1
13 12 12
14 0 22
14 1 21
14 2 26
14 3 2
14 4 22
14 5 20
14 6 19
14 7 21
14 8 9
14 9 2
14 10 2
14 11 9
14 12 4
14 13 21
15 0 20
15 1 23
15 2 13
15 3 23
15 4 4
15 5 14
15 6 19
15 7 2
15 8 3
15 9 4
15 10 22
15 11 3
15 12 18
15 13 23
15 14 11
16 0 20
16 1 15
16 2 1
16 3 24
16 4 13
16 5 2
16 6 20
16 7 12
16 8 8
16 9 25
16 10 11
16 11 10
16 12 20
16 13 18
16 14 20
16 15 7
17 0 10
17 1 19
17 2 1
17 3 12
17 4 23
17 5 7
17 6 17
17 7 23
17 8 16
17 9 20
17 10 12
17 11 21
17 12 25
17 13 26
17 14 11
17 15 3
17 16 22
18 0 6
18 1 3
18 2 21
18 3 15
18 4 17
18 5 11
18 6 5
18 7 7
18 8 24
18 9 23
18 10 22
18 11 6
18 12 22
18 13 16
18 14 26
18 15 25
18 16 17
18 17 16
19 0 12
19 1 14
19 2 26
19 3 11
19 4 26
19 5 5
19 6 22
19 7 10
19 8 11
19 9 16
19 10 14
19 11 10
19 12 14
19 13 14
19 14 13
19 15 12
19 16 7
19 17 25
19 18 22
20 0 22
20 1 6
20 2 11
20 3 8
20 4 3
20 5 9
20 6 22
20 7 9
20 8 21
20 9 4
20 10 11
20 11 22
20 12 11
20 13 2
20 14 20
20 15 13
20 16 21
20 17 16
20 18 5
20 19 5
21 0 9
21 1 9
21 2 22
21 3 19
21 4 12
21 5 14
21 6 5
21 7 22
21 8 4
21 9 22
21 10 1
21 11 12
21 12 19
21 13 6
21 14 22
21 15 9
21 16 6
21 17 2
21 18 8
21 19 21
21 20 16
22 0 9
22 1 15
22 2 25
22 3 1
22 4 2
22 5 22
22 6 23
22 7 2
22 8 11
22 9 8
22 10 18
22 11 6
22 12 14
22 13 21
22 14 2
22 15 4
22 16 8
22 17 23
22 18 5
22 19 14
22 20 3
22 21 11
23 0 14
23 1 24
23 2 22
23 3 19
23 4 15
23 5 8
23 6 1
23 7 20
23 8 8
23 9 12
23 10 10
23 11 21
23 12 14
23 13 20
23 14 5
23 15 10
23 16 20
23 17 5
23 18 21
23 19 11
23 20 15
23 21 14
23 22 18
24 0 2
24 1 21
24 2 18
24 3 6
24 4 11
24 5 18
24 6 6
24 7 8
24 8 7
24 9 24
24 10 3
24 11 2
24 12 18
24 13 4
24 14 9
24 15 23
24 16 17
24 17 20
24 18 5
24 19 1
24 20 10
24 21 9
24 22 21
24 23 16
25 0 12
25 1 23
25 2 17
25 3 11
25 4 18
25 5 2
25 6 8
25 7 18
25 8 15
25 9 4
25 10 6
25 11 8
25 12 13
25 13 2
25 14 4
25 15 22
25 16 2
25 17 21
25 18 8
25 19 1
25 20 14
25 21 14
25 22 17
25 23 10
25 24 25
26 0 13
26 1 25
26 2 10
26 3 10
26 4 3
26 5 4
26 6 9
26 7 12
26 8 11
26 9 12
26 10 17
26 11 17
26 12 25
26 13 2
26 14 11
26 15 19
26 16 5
26 17 17
26 18 18
26 19 14
26 20 3
26 21 18
26 22 22
26 23 19
26 24 3
26 25 12
27 0 7
27 1 12
27 2 23
27 3 13
27 4 20
27 5 1
27 6 24
27 7 6
27 8 13
27 9 16
27 10 26
27 11 18
27 12 25
27 13 12
27 14 19
27 15 9
27 16 3
27 17 4
27 18 2
27 19 5
27 20 1
27 21 11
27 22 6
27 23 21
27 24 3
27 25 23
27 26 9
28 0 12
28 1 17
28 2 20
28 3 6
28 4 19
28 5 12
28 6 25
28 7 22
28 8 8
28 9 12
28 10 21
28 11 21
28 12 24
28 13 22
28 14 24
28 15 26
28 16 5
28 17 1
28 18 21
28 19 22
28 20 18
28 21 9
28 22 11
28 23 20
28 24 13
28 25 15
28 26 1
28 27 8
29 0 12
29 1 16
29 2 19
29 3 15
29 4 17
29 5 11
29 6 3
29 7 11
29 8 11
29 9 22
29 10 1
29 11 18
29 12 20
29 13 14
29 14 16
29 15 1
29 16 10
29 17 21
29 18 24
29 19 19
29 20 10
29 21 18
29 22 14
29 23 24
29 24 14
29 25 5
29 26 2
29 27 15
29 28 18
30 0 14
30 1 14
30 2 18
30 3 7
30 4 25
30 5 6
30 6 7
30 7 21
30 8 17
30 9 7
30 10 9
30 11 3
30 12 20
30 13 26
30 14 5
30 15 19
30 16 8
30 17 13
30 18 3
30 19 11
30 20 9
30 21 7
30 22 18
30 23 25
30 24 1
30 25 4
30 26 21
30 27 17
30 28 11
30 29 7
31 0 15
31 1 1
31 2 8
31 3 11
31 4 16
31 5 25
31 6 5
31 7 12
31 8 3
31 9 26
31 10 14
31 11 8
31 12 18
31 13 14
31 14 6
31 15 17
31 16 1
31 17 7
31 18 18
31 19 25
31 20 14
31 21 9
31 22 12
31 23 11
31 24 26
31 25 15
31 26 25
31 27 22
31 28 14
31 29 14
31 30 5
32 0 14
32 1 4
32 2 18
32 3 22
32 4 19
32 5 17
32 6 5
32 7 1
32 8 11
32 9 19
32 10 21
32 11 21
32 12 26
32 13 15
32 14 19
32 15 11
32 16 10
32 17 7
32 18 19
32 19 25
32 20 6
32 21 11
32 22 26
32 23 18
32 24 2
32 25 21
32 26 26
32 27 7
32 28 10
32 29 26
32 30 14
32 31 15
33 0 24
33 1 6
33 2 13
33 3 2
33 4 8
33 5 4
33 6 18
33 7 19
33 8 7
33 9 25
33 10 8
33 11 26
33 12 16
33 13 4
33 14 2
33 15 8
33 16 25
33 17 26
33 18 21
33 19 3
33 20 1
33 21 5
33 22 20
33 23 18
33 24 18
33 25 23
33 26 25
33 27 15
33 28 4
33 29 8
33 30 20
33 31 6
33 32 1
34 0 2
34 1 5
34 2 12
34 3 13
34 4 26
34 5 7
34 6 7
34 7 2
34 8 16
34 9 7
34 10 2
34 11 5
34 12 6
34 13 5
34 14 26
34 15 21
34 16 19
34 17 13
34 18 13
34 19 25
34 20 21
34 21 16
34 22 18
34 23 1
34 24 2
34 25 10
34 26 17
34 27 7
34 28 11
34 29 5
34 30 18
34 31 2
34 32 18
34 33 9
35 0 15
35 1 11
35 2 26
35 3 22
35 4 1
35 5 2
35 6 20
35 7 24
35 8 25
35 9 13
35 10 14
35 11 4
35 12 11
35 13 22
35 14 2
35 15 5
35 16 6
35 17 5
35 18 13
35 19 3
35 20 3
35 21 21
35 22 24
35 23 6
35 24 1
35 25 16
35 26 18
35 27 18
35 28 5
35 29 21
35 30 11
35 31 10
35 32 15
35 33 24
35 34 12
36 0 12
36 1 10
36 2 13
36 3 15
36 4 8
36 5 3
36 6 25
36 7 14
36 8 10
36 9 23
36 10 19
36 11 4
36 12 16
36 13 24
36 14 18
36 15 6
36 16 15
36 17 4
36 18 22
36 19 6
36 20 17
36 21 10
36 22 19
36 23 6
36 24 26
36 25 23
36 26 16
36 27 8
36 28 17
36 29 21
36 30 15
36 31 17
36 32 8
36 33 3
36 34 22
36 35 15
37 0 25
37 1 26
37 2 20
37 3 22
37 4 19
37 5 11
37 6 16
37 7 6
37 8 26
37 9 1
37 10 5
37 11 9
37 12 23
37 13 3
37 14 5
37 15 12
37 16 1
37 17 9
37 18 1
37 19 19
37 20 22
37 21 16
37 22 15
37 23 24
37 24 11
37 25 6
37 26 20
37 27 13
37 28 22
37 29 1
37 30 19
37 31 6
37 32 6
37 33 17
37 34 26
37 35 18
37 36 13
38 0 13
38 1 12
38 2 5
38 3 1
38 4 11
38 5 6
38 6 23
38 7 19
38 8 3
38 9 2
38 10 7
38 11 24
38 12 19
38 13 18
38 14 19
38 15 23
38 16 10
38 17 11
38 18 14
38 19 1
38 20 26
38 21 18
38 22 24
38 23 17
38 24 10
38 25 24
38 26 17
38 27 5
38 28 3
38 29 12
38 30 16
38 31 13
38 32 13
38 33 22
38 34 26
38 35 21
38 36 24
38 37 5
39 0 7
39 1 13
39 2 13
39 3 24
39 4 6
39 5 2
39 6 7
39 7 18
39 8 7
39 9 21
39 10 21
39 11 18
39 12 1
39 13 20
39 14 2
39 15 12
39 16 12
39 17 18
39 18 15
39 19 12
39 20 24
39 21 17
39 22 4
39 23 23
39 24 20
39 25 1
39 26 4
39 27 4
39 28 9
39 29 26
39 30 25
39 31 8
39 32 22
39 33 8
39 34 14
39 35 9
39 36 5
39 37 17
39 38 2
40 0 26
40 1 9
40 2 8
40 3 18
40 4 15
40 5 4
40 6 23
40 7 17
40 8 25
40 9 21
40 10 4
40 11 14
40 12 18
40 13 20
40 14 6
40 15 16
40 16 24
40 17 19
40 18 25
40 19 8
40 20 13
40 21 6
40 22 23
40 23 23
40 24 20
40 25 8
40 26 5
40 27 19
40 28 9
40 29 20
40 30 1
40 31 3
40 32 10
40 33 17
40 34 5
40 35 17
40 36 3
40 37 2
40 38 21
40 39 17
41 0 2
41 1 10
41 2 13
41 3 7
41 4 5
41 5 24
41 6 10
41 7 2
41 8 1
41 9 20
41 10 20
41 11 4
41 12 21
41 13 6
41 14 6
41 15 18
41 16 15
41 17 8
41 18 25
41 19 14
41 20 4
41 21 2
41 22 24
41 23 24
41 24 17
41 25 20
41 26 8
41 27 13
41 28 4
41 29 1
41 30 2
41 31 12
41 32 16
41 33 18
41 34 17
41 35 14
41 36 24
41 37 24
41 38 10
41 39 7
41 40 19
42 0 14
42 1 13
42 2 26
42 3 22
42 4 10
42 5 13
42 6 11
42 7 22
42 8 26
42 9 8
42 10 20
42 11 10
42 12 2
42 13 13
42 14 24
42 15 12
42 16 25
42 17 18
42 18 22
42 19 9
42 20 23
42 21 6
42 22 6
42 23 9
42 24 3
42 25 23
42 26 5
42 27 3
42 28 9
42 29 12
42 30 18
42 31 13
42 32 15
42 33 22
42 34 19
42 35 6
42 36 9
42 37 20
42 38 19
42 39 15
42 40 12
42 41 21
43 0 7
43 1 26
43 2 5
43 3 7
43 4 26
43 5 15
43 6 18
43 7 13
43 8 16
43 9 8
43 10 11
43 11 3
43 12 14
43 13 1
43 14 5
43 15 23
43 16 20
43 17 12
43 18 14
43 19 19
43 20 3
43 21 21
43 22 21
43 23 5
43 24 5
43 25 13
43 26 8
43 27 20
43 28 12
43 29 22
43 30 12
43 31 25
43 32 7
43 33 10
43 34 21
43 35 5
43 36 6
43 37 19
43 38 26
43 39 2
43 40 18
43 41 13
43 42 4
44 0 19
44 1 21
44 2 15
44 3 8
44 4 18
44 5 4
44 6 1
44 7 3
44 8 6
44 9 4
44 10 5
44 11 1
44 12 17
44 13 26
44 14 3
44 15 6
44 16 25
44 17 3
44 18 19
44 19 17
44 20 8
44 21 26
44 22 10
44 23 22
44 24 19
44 25 3
44 26 20
44 27 5
44 28 26
44 29 5
44 30 9
44 31 18
44 32 6
44 33 1
44 34 22
44 35 6
44 36 26
44 37 24
44 38 10
44 39 10
44 40 26
44 41 19
44 42 7
44 43 17
45 0 1
45 1 22
45 2 11
45 3 12
45 4 16
45 5 13
45 6 12
45 7 9
45 8 8
45 9 8
45 10 5
45 11 6
45 12 19
45 13 9
45 14 16
45 15 5
45 16 3
45 17 6
45 18 6
45 19 8
45 20 2
45 21 4
45 22 22
45 23 12
45 24 24
45 25 24
45 26 15
45 27 1
45 28 5
45 29 15
45 30 20
45 31 23
45 32 24
45 33 4
45 34 23
45 35 9
45 36 17
45 37 1
45 38 9
45 39 2
45 40 13
45 41 1
45 42 18
45 43 12
45 44 20
46 0 5
46 1 7
46 2 7
46 3 14
46 4 11
46 5 16
46 6 13
46 7 3
46 8 15
46 9 19
46 10 1
46 11 2
46 12 24
46 13 2
46 14 15
46 15 22
46 16 24
46 17 15
46 18 16
46 19 20
46 20 12
46 21 24
46 22 17
46 23 23
46 24 14
46 25 23
46 26 23
46 27 11
46 28 16
46 29 2
46 30 4
46 31 20
46 32 3
46 33 26
46 34 14
46 35 19
46 36 6
46 37 23
46 38 12
46 39 9
46 40 20
46 41 21
46 42 20
46 43 19
46 44 25
46 45 1
47 0 21
47 1 4
47 2 23
47 3 18
47 4 20
47 5 19
47 6 5
47 7 25
47 8 4
47 9 25
47 10 16
47 11 19
47 12 4
47 13 19
47 14 18
47 15 8
47 16 15
47 17 10
47 18 7
47 19 3
47 20 8
47 21 10
47 22 20
47 23 16
47 24 19
47 25 5
47 26 23
47 27 15
47 28 2
47 29 19
47 30 2
47 31 2
47 32 14
47 33 12
47 34 1
47 35 10
47 36 20
47 37 24
47 38 25
47 39 15
47 40 4
47 41 8
47 42 3
47 43 18
47 44 21
47 45 5
47 46 13
48 0 20
48 1 2
48 2 23
48 3 1
48 4 8
48 5 22
48 6 19
48 7 3
48 8 8
48 9 13
48 10 13
48 11 26
48 12 19
48 13 7
48 14 13
48 15 17
48 16 11
48 17 24
48 18 4
48 19 24
48 20 4
48 21 7
48 22 9
48 23 5
48 24 12
48 25 2
48 26 10
48 27 24
48 28 24
48 29 5
48 30 21
48 31 13
48 32 15
48 33 21
48 34 4
48 35 15
48 36 9
48 37 19
48 38 9
48 39 25
48 40 21
48 41 10
48 42 13
48 43 26
48 44 9
48 45 5
48 46 7
48 47 1
49 0 1
49 1 3
49 2 24
49 3 16
49 4 19
49 5 12
49 6 23
49 7 18
49 8 10
49 9 22
49 10 11
49 11 6
49 12 20
49 13 9
49 14 16
49 15 22
49 16 12
49 17 2
49 18 20
49 19 9
49 20 12
49 21 14
49 22 5
49 23 26
49 24 25
49 25 24
49 26 21
49 27 22
49 28 16
49 29 20
49 30 21
49 31 3
49 32 13
49 33 20
49 34 13
49 35 9
49 36 4
49 37 22
49 38 11
49 39 2
49 40 11
49 41 15
49 42 21
49 43 4
49 44 26
49 45 17
49 46 25
49 47 24
49 48 21
50 0 24
50 1 26
50 2 13
50 3 2
50 4 4
50 5 20
50 6 20
50 7 22
50 8 23
50 9 16
50 10 7
50 11 6
50 12 12
50 13 18
50 14 19
50 15 26
50 16 13
50 17 26
50 18 21
50 19 21
50 20 13
50 21 21
50 22 11
50 23 18
50 24 26
50 25 18
50 26 10
50 27 15
50 28 9
50 29 12
50 30 1
50 31 21
50 32 19
50 33 25
50 34 19
50 35 26
50 36 16
50 37 2
50 38 19
50 39 22
50 40 2
50 41 15
50 42 4
50 43 2
50 44 22
50 45 8
50 46 9
50 47 16
50 48 14
50 49 18
51 0 21
51 1 12
51 2 23
51 3 24
51 4 19
51 5 17
51 6 26
51 7 12
51 8 13
51 9 23
51 10 26
51 11 24
51 12 16
51 13 8
51 14 19
51 15 12
51 16 12
51 17 11
51 18 10
51 19 16
51 20 6
51 21 13
51 22 19
51 23 22
51 24 6
51 25 14
51 26 6
51 27 20
51 28 12
51 29 3
51 30 4
51 31 5
51 32 24
51 33 5
51 34 4
51 35 17
51 36 12
51 37 1
51 38 8
51 39 10
51 40 16
51 41 20
51 42 3
51 43 14
51 44 2
51 45 25
51 46 11
51 47 4
51 48 16
51 49 24
51 50 24
52 0 12
52 1 21
52 2 16
52 3 1
52 4 5
52 5 13
52 6 9
52 7 25
52 8 26
52 9 5
52 10 26
52 11 7
52 12 12
52 13 20
52 14 16
52 15 20
52 16 2
52 17 1
52 18 22
52 19 20
52 20 25
52 21 1
52 22 11
52 23 18
52 24 20
52 25 5
52 26 7
52 27 5
52 28 13
52 29 2
52 30 13
52 31 9
52 32 8
52 33 18
52 34 12
52 35 18
52 36 26
52 37 19
52 38 19
52 39 5
52 40 21
52 41 20
52 42 19
52 43 25
52 44 21
52 45 21
52 46 17
52 47 1
52 48 6
52 49 12
52 50 12
52 51 2
53 0 19
53 1 13
53 2 14
53 3 16
53 4 14
53 5 15
53 6 13
53 7 24
53 8 23
53 9 3
53 10 18
53 11 21
53 12 13
53 13 11
53 14 14
53 15 13
53 16 6
53 17 3
53 18 10
53 19 6
53 20 23
53 21 5
53 22 13
53 23 25
53 24 22
53 25 16
53 26 23
53 27 18
53 28 11
53 29 21
53 30 15
53 31 6
53 32 9
53 33 25
53 34 8
53 35 8
53 36 2
53 37 10
53 38 23
53 39 9
53 40 16
53 41 3
53 42 13
53 43 3
53 44 25
53 45 12
53 46 18
53 47 21
53 48 14
53 49 21
53 50 12
53 51 7
53 52 22
54 0 15
54 1 11
54 2 5
54 3 20
54 4 17
54 5 7
54 6 6
54 7 3
54 8 16
54 9 7
54 10 26
54 11 19
54 12 1
54 13 12
54 14 6
54 15 2
54 16 17
54 17 13
54 18 19
54 19 21
54 20 23
54 21 11
54 22 8
54 23 10
54 24 14
54 25 8
54 26 26
54 27 9
54 28 5
54 29 18
54 30 18
54 31 7
54 32 22
54 33 16
54 34 9
54 35 3
54 36 15
54 37 11
54 38 20
54 39 23
54 40 19
54 41 3
54 42 17
54 43 24
54 44 13
54 45 6
54 46 11
54 47 19
54 48 1
54 49 9
54 50 8
54 51 18
54 52 10
54 53 14
55 0 1
55 1 4
55 2 7
55 3 4
55 4 6
55 5 17
55 6 21
55 7 11
55 8 19
55 9 18
55 10 4
55 11 2
55 12 10
55 13 24
55 14 25
55 15 11
55 16 5
55 17 17
55 18 13
55 19 3
55 20 7
55 21 7
55 22 21
55 23 12
55 24 25
55 25 19
55 26 2
55 27 11
55 28 24
55 29 12
55 30 5
55 31 16
55 32 6
55 33 10
55 34 19
55 35 11
55 36 19
55 37 8
55 38 14
55 39 13
55 40 1
55 41 16
55 42 11
55 43 19
55 44 2
55 45 19
55 46 20
55 47 1
55 48 2
55 49 15
55 50 14
55 51 19
55 52 11
55 53 10
55 54 20
56 0 17
56 1 16
56 2 6
56 3 25
56 4 19
56 5 10
56 6 8
56 7 26
56 8 24
56 9 14
56 10 26
56 11 24
56 12 23
56 13 13
56 14 25
56 15 9
56 16 14
56 17 3
56 18 18
56 19 26
56 20 16
56 21 13
56 22 18
56 23 20
56 24 17
56 25 22
56 26 3
56 27 4
56 28 25
56 29 15
56 30 5
56 31 24
56 32 24
56 33 8
56 34 25
56 35 1
56 36 7
56 37 4
56 38 12
56 39 2
56 40 12
56 41 25
56 42 20
56 43 9
56 44 21
56 45 18
56 46 1
56 47 19
56 48 18
56 49 23
56 50 14
56 51 26
56 52 20
56 53 16
56 54 12
56 55 6
57 0 10
57 1 15
57 2 26
57 3 22
57 4 10
57 5 20
57 6 23
57 7 1
57 8 1
57 9 16
57 10 9
57 11 5
57 12 4
57 13 23
57 14 8
57 15 26
57 16 22
57 17 6
57 18 6
57 19 12
57 20 26
57 21 6
57 22 23
57 23 6
57 24 23
57 25 7
57 26 25
57 27 26
57 28 9
57 29 20
57 30 8
57 31 10
57 32 25
57 33 12
57 34 11
57 35 26
57 36 4
57 37 26
57 38 2
57 39 23
57 40 15
57 41 8
57 42 6
57 43 13
57 44 13
57 45 20
57 46 9
57 47 1
57 48 13
57 49 14
57 50 23
57 51 9
57 52 26
57 53 12
57 54 15
57 55 3
57 56 20
58 0 15
58 1 22
58 2 13
58 3 13
58 4 7
58 5 6
58 6 23
58 7 23
58 8 5
58 9 24
58 10 7
58 11 26
58 12 25
58 13 21
58 14 12
58 15 19
58 16 1
58 17 9
58 18 19
58 19 16
58 20 7
58 21 6
58 22 19
58 23 14
58 24 22
58 25 3
58 26 2
58 27 21
58 28 10
58 29 8
58 30 17
58 31 18
58 32 6
58 33 8
58 34 10
58 35 16
58 36 23
58 37 21
58 38 13
58 39 12
58 40 20
58 41 12
58 42 2
58 43 9
58 44 6
58 45 13
58 46 21
58 47 15
58 48 16
58 49 23
58 50 22
58 51 25
58 52 14
58 53 19
58 54 10
58 55 24
58 56 18
58 57 5
59 0 11
59 1 5
59 2 13
59 3 1
59 4 23
59 5 22
59 6 5
59 7 14
59 8 16
59 9 7
59 10 7
59 11 8
59 12 12
59 13 18
59 14 19
59 15 11
59 16 7
59 17 7
59 18 6
59 19 1
59 20 8
59 21 24
59 22 18
59 23 24
59 24 16
59 25 4
59 26 2
59 27 24
59 28 15
59 29 9
59 30 10
59 31 11
59 32 5
59 33 15
59 34 3
59 35 22
59 36 25
59 37 7
59 38 13
59 39 3
59 40 16
59 41 4
59 42 20
59 43 22
59 44 5
59 45 15
59 46 24
59 47 20
59 48 17
59 49 14
59 50 9
59 51 21
59 52 8
59 53 12
59 54 7
59 55 5
59 56 2
59 57 1
59 58 1
60 0 4
60 1 23
60 2 10
60 3 22
60 4 3
60 5 26
60 6 3
60 7 24
60 8 18
60 9 22
60 10 21
60 11 19
60 12 21
60 13 24
60 14 7
60 15 17
60 16 4
60 17 18
60 18 21
60 19 23
60 20 24
60 21 11
60 22 18
60 23 21
60 24 20
60 25 19
60 26 19
60 27 8
60 28 6
60 29 1
60 30 19
60 31 26
60 32 24
60 33 3
60 34 13
60 35 24
60 36 15
60 37 12
60 38 19
60 39 18
60 40 17
60 41 19
60 42 4
60 43 18
60 44 16
60 45 15
60 46 21
60 47 21
60 48 23
60 49 1
60 50 2
60 51 12
60 52 21
60 53 17
60 54 1
60 55 25
60 56 8
60 57 12
60 58 5
60 59 1
61 0 10
61 1 20
61 2 15
61 3 8
61 4 4
61 5 1
61 6 2
61 7 1
61 8 5
61 9 4
61 10 3
61 11 16
61 12 23
61 13 17
61 14 1
61 15 22
61 16 25
61 17 21
61 18 8
61 19 8
61 20 13
61 21 1
61 22 25
61 23 7
61 24 1
61 25 1
61 26 18
61 27 23
61 28 13
61 29 26
61 30 6
61 31 19
61 32 21
61 33 7
61 34 7
61 35 20
61 36 2
61 37 25
61 38 11
61 39 19
61 40 13
61 41 18
61 42 20
61 43 21
61 44 15
61 45 24
61 46 26
61 47 22
61 48 14
61 49 11
61 50 16
61 51 19
61 52 5
61 53 21
61 54 25
61 55 9
61 56 21
61 57 7
61 58 15
61 59 2
61 60 1
62 0 23
62 1 3
62 2 2
62 3 14
62 4 2
62 5 21
62 6 1
62 7 8
62 8 1
62 9 20
62 10 1
62 11 1
62 12 17
62 13 1
62 14 3
62 15 3
62 16 19
62 17 17
62 18 1
62 19 14
62 20 12
62 21 25
62 22 24
62 23 6
62 24 1
62 25 16
62 26 13
62 27 23
62 28 15
62 29 12
62 30 17
62 31 5
62 32 9
62 33 7
62 34 21
62 35 16
62 36 15
62 37 17
62 38 7
62 39 22
62 40 25
62 41 10
62 42 6
62 43 17
62 44 23
62 45 6
62 46 7
62 47 1
62 48 17
62 49 16
62 50 5
62 51 12
62 52 16
62 53 24
62 54 13
62 55 18
62 56 21
62 57 12
62 58 25
62 59 20
62 60 7
62 61 2
63 0 6
63 1 26
63 2 19
63 3 26
63 4 4
63 5 22
63 6 18
63 7 14
63 8 14
63 9 3
63 10 14
63 11 16
63 12 5
63 13 7
63 14 1
63 15 12
63 16 19
63 17 1
63 18 5
63 19 12
63 20 18
63 21 7
63 22 22
63 23 13
63 24 5
63 25 16
63 26 24
63 27 2
63 28 25
63 29 17
63 30 7
63 31 1
63 32 6
63 33 4
63 34 1
63 35 20
63 36 12
63 37 2
63 38 9
63 39 19
63 40 12
63 41 3
63 42 2
63 43 22
63 44 1
63 45 2
63 46 6
63 47 21
63 48 2
63 49 2
63 50 9
63 51 24
63 52 9
63 53 13
63 54 24
63 55 4
63 56 15
63 57 1
63 58 17
63 59 4
63 60 3
63 61 13
63 62 20
64 0 25
64 1 12
64 2 3
64 3 15
64 4 26
64 5 15
64 6 5
64 7 24
64 8 24
64 9 18
64 10 5
64 11 26
64 12 13
64 13 15
64 14 14
64 15 11
64 16 10
64 17 14
64 18 9
64 19 26
64 20 22
64 21 20
64 22 2
64 23 23
64 24 22
64 25 13
64 26 1
64 27 25
64 28 11
64 29 2
64 30 1
64 31 12
64 32 9
64 33 19
64 34 1
64 35 8
64 36 10
64 37 16
64 38 2
64 39 26
64 40 8
64 41 11
64 42 8
64 43 10
64 44 4
64 45 23
64 46 10
64 47 3
64 48 7
64 49 14
64 50 9
64 51 16
64 52 2
64 53 3
64 54 14
64 55 14
64 56 1
64 57 17
64 58 18
64 59 9
64 60 22
64 61 26
64 62 19
64 63 10
65 0 23
65 1 7
65 2 1
65 3 15
65 4 17
65 5 5
65 6 16
65 7 17
65 8 16
65 9 26
65 10 25
65 11 11
65 12 16
65 13 23
65 14 17
65 15 19
65 16 15
65 17 7
65 18 23
65 19 20
65 20 21
65 21 7
65 22 26
65 23 5
65 24 20
65 25 4
65 26 5
65 27 5
65 28 12
65 29 4
65 30 24
65 31 8
65 32 3
65 33 8
65 34 23
65 35 12
65 36 19
65 37 6
65 38 22
65 39 3
65 40 5
65 41 8
65 42 8
65 43 2
65 44 20
65 45 20
65 46 19
65 47 5
65 48 12
65 49 5
65 50 3
65 51 12
65 52 8
65 53 17
65 54 3
65 55 23
65 56 14
65 57 23
65 58 22
65 59 9
65 60 16
65 61 7
65 62 22
65 63 5
65 64 22
